Instance0
Gap
100.00%
100.00%
75.42%
73.26%
63.62%
50.63%
50.48%
49.60%
45.06%
42.50%
40.67%
40.64%
40.63%
40.58%
40.57%
40.48%
40.19%
CPXPARAM_MIP_Cuts_Gomory-Disjunctive:Gomory 6
CPXPARAM_MIP_Cuts_Gomory-Disjunctive:Disjunctive 5
Instance1
Gap
100.00%
100.00%
100.00%
99.28%
95.91%
82.04%
75.41%
74.11%
70.52%
70.26%
68.31%
50.09%
49.92%
39.94%
CPXPARAM_MIP_Cuts_Gomory-Disjunctive:Gomory 4
CPXPARAM_MIP_Cuts_Gomory-Disjunctive:Disjunctive 13
Instance2
Gap
100.00%
100.00%
68.57%
60.19%
48.57%
48.57%
43.86%
43.25%
CPXPARAM_MIP_Cuts_Gomory-Disjunctive:Gomory 0
CPXPARAM_MIP_Cuts_Gomory-Disjunctive:Disjunctive 3
Instance3
Gap
100.00%
100.00%
99.62%
99.49%
95.49%
91.40%
88.61%
84.60%
84.45%
84.43%
76.20%
61.66%
19.89%
3.16%
CPXPARAM_MIP_Cuts_Gomory-Disjunctive:Gomory 5
CPXPARAM_MIP_Cuts_Gomory-Disjunctive:Disjunctive 5
Instance4
Gap
100.00%
100.00%
100.00%
76.86%
72.59%
66.20%
63.78%
63.75%
52.57%
52.50%
51.59%
45.92%
45.69%
45.65%
CPXPARAM_MIP_Cuts_Gomory-Disjunctive:Gomory 2
CPXPARAM_MIP_Cuts_Gomory-Disjunctive:Disjunctive 5
Instance5
Gap
100.00%
100.00%
100.00%
99.40%
99.04%
89.27%
80.40%
80.40%
73.42%
73.31%
CPXPARAM_MIP_Cuts_Gomory-Disjunctive:Gomory 2
CPXPARAM_MIP_Cuts_Gomory-Disjunctive:Disjunctive 7
Instance6
Gap
100.00%
100.00%
69.98%
65.46%
61.28%
49.10%
41.94%
40.17%
39.83%
38.47%
36.47%
35.39%
33.75%
31.53%
CPXPARAM_MIP_Cuts_Gomory-Disjunctive:Gomory 2
CPXPARAM_MIP_Cuts_Gomory-Disjunctive:Disjunctive 4
Instance7
Gap
100.00%
100.00%
100.00%
99.99%
91.19%
62.71%
62.12%
38.37%
CPXPARAM_MIP_Cuts_Gomory-Disjunctive:Gomory 1
CPXPARAM_MIP_Cuts_Gomory-Disjunctive:Disjunctive 10
Instance8
Gap
100.00%
100.00%
59.21%
53.34%
46.01%
45.84%
39.16%
36.92%
36.33%
36.26%
32.64%
32.56%
CPXPARAM_MIP_Cuts_Gomory-Disjunctive:Gomory 1
CPXPARAM_MIP_Cuts_Gomory-Disjunctive:Disjunctive 8
Instance9
Gap
100.00%
100.00%
100.00%
99.37%
99.21%
92.60%
88.21%
85.74%
85.08%
85.08%
83.43%
83.41%
80.85%
80.58%
CPXPARAM_MIP_Cuts_Gomory-Disjunctive:Gomory 3
CPXPARAM_MIP_Cuts_Gomory-Disjunctive:Disjunctive 9
Instance10
Gap
100.00%
100.00%
62.81%
59.89%
50.10%
43.38%
42.58%
39.88%
39.79%
39.78%
35.14%
34.53%
34.51%
CPXPARAM_MIP_Cuts_Gomory-Disjunctive:Gomory 2
CPXPARAM_MIP_Cuts_Gomory-Disjunctive:Disjunctive 3
Instance11
Gap
100.00%
100.00%
99.97%
99.93%
91.71%
88.06%
88.05%
86.60%
85.59%
85.10%
77.57%
75.76%
75.11%
CPXPARAM_MIP_Cuts_Gomory-Disjunctive:Gomory 3
CPXPARAM_MIP_Cuts_Gomory-Disjunctive:Disjunctive 8
Instance12
Gap
100.00%
100.00%
69.71%
64.56%
53.47%
52.82%
51.97%
51.10%
41.93%
40.46%
40.37%
29.52%
28.95%
CPXPARAM_MIP_Cuts_Gomory-Disjunctive:Gomory 5
CPXPARAM_MIP_Cuts_Gomory-Disjunctive:Disjunctive 4
Instance13
Gap
100.00%
100.00%
100.00%
99.35%
99.30%
94.06%
90.72%
89.15%
87.26%
86.72%
84.62%
84.54%
84.09%
83.26%
77.51%
77.34%
76.29%
76.02%
75.60%
CPXPARAM_MIP_Cuts_Gomory-Disjunctive:Gomory 1
CPXPARAM_MIP_Cuts_Gomory-Disjunctive:Disjunctive 11
Instance14
Gap
100.00%
100.00%
67.25%
61.80%
55.96%
52.69%
52.61%
52.01%
47.41%
44.51%
42.14%
38.71%
38.27%
37.88%
23.56%
18.29%
17.51%
CPXPARAM_MIP_Cuts_Gomory-Disjunctive:Gomory 5
CPXPARAM_MIP_Cuts_Gomory-Disjunctive:Disjunctive 6
Instance15
Gap
100.00%
100.00%
99.71%
99.31%
88.26%
80.57%
75.17%
62.85%
55.38%
CPXPARAM_MIP_Cuts_Gomory-Disjunctive:Gomory 2
CPXPARAM_MIP_Cuts_Gomory-Disjunctive:Disjunctive 8
Instance16
Gap
100.00%
100.00%
60.68%
59.49%
50.57%
30.64%
30.09%
28.05%
21.75%
20.96%
19.17%
19.08%
CPXPARAM_MIP_Cuts_Gomory-Disjunctive:Gomory 2
CPXPARAM_MIP_Cuts_Gomory-Disjunctive:Disjunctive 8
Instance17
Gap
100.00%
100.00%
100.00%
99.43%
99.32%
93.50%
88.06%
87.27%
85.94%
77.15%
75.63%
73.44%
70.81%
CPXPARAM_MIP_Cuts_Gomory-Disjunctive:Gomory 3
CPXPARAM_MIP_Cuts_Gomory-Disjunctive:Disjunctive 8
Instance18
Gap
100.00%
100.00%
57.84%
51.78%
44.43%
41.76%
40.60%
35.37%
29.69%
29.26%
21.28%
17.88%
17.82%
CPXPARAM_MIP_Cuts_Gomory-Disjunctive:Gomory 2
CPXPARAM_MIP_Cuts_Gomory-Disjunctive:Disjunctive 6
Instance19
Gap
100.00%
100.00%
99.54%
99.29%
93.51%
86.13%
83.50%
80.06%
77.67%
74.64%
74.40%
73.95%
65.10%
63.84%
CPXPARAM_MIP_Cuts_Gomory-Disjunctive:Gomory 3
CPXPARAM_MIP_Cuts_Gomory-Disjunctive:Disjunctive 9
Instance20
Gap
100.00%
100.00%
89.26%
78.36%
62.02%
62.01%
60.81%
55.04%
53.41%
48.24%
45.06%
44.84%
CPXPARAM_MIP_Cuts_Gomory-Disjunctive:Gomory 3
CPXPARAM_MIP_Cuts_Gomory-Disjunctive:Disjunctive 3
Instance21
Gap
100.00%
100.00%
100.00%
99.52%
98.54%
91.96%
89.99%
83.59%
81.85%
80.59%
69.87%
69.40%
63.33%
CPXPARAM_MIP_Cuts_Gomory-Disjunctive:Gomory 2
CPXPARAM_MIP_Cuts_Gomory-Disjunctive:Disjunctive 16
Instance22
Gap
100.00%
100.00%
88.62%
70.72%
50.14%
41.62%
37.04%
32.27%
CPXPARAM_MIP_Cuts_Gomory-Disjunctive:Gomory 2
CPXPARAM_MIP_Cuts_Gomory-Disjunctive:Disjunctive 3
Instance23
Gap
100.00%
100.00%
99.78%
99.46%
91.87%
44.26%
43.06%
38.14%
CPXPARAM_MIP_Cuts_Gomory-Disjunctive:Gomory 4
CPXPARAM_MIP_Cuts_Gomory-Disjunctive:Disjunctive 5
Instance24
Gap
100.00%
100.00%
84.00%
78.89%
64.26%
63.69%
58.23%
44.74%
44.29%
40.35%
40.23%
40.21%
40.15%
CPXPARAM_MIP_Cuts_Gomory-Disjunctive:Gomory 6
CPXPARAM_MIP_Cuts_Gomory-Disjunctive:Disjunctive 3
Instance25
Gap
100.00%
100.00%
99.59%
99.18%
94.72%
77.40%
71.84%
71.26%
70.12%
62.41%
62.15%
55.17%
CPXPARAM_MIP_Cuts_Gomory-Disjunctive:Gomory 2
CPXPARAM_MIP_Cuts_Gomory-Disjunctive:Disjunctive 13
Instance26
Gap
100.00%
100.00%
84.48%
68.92%
46.15%
37.75%
37.14%
33.30%
27.80%
22.59%
22.47%
22.06%
CPXPARAM_MIP_Cuts_Gomory-Disjunctive:Gomory 6
CPXPARAM_MIP_Cuts_Gomory-Disjunctive:Disjunctive 4
Instance27
Gap
100.00%
100.00%
99.81%
99.61%
94.71%
65.15%
63.89%
62.96%
62.21%
61.51%
53.30%
36.57%
CPXPARAM_MIP_Cuts_Gomory-Disjunctive:Gomory 2
CPXPARAM_MIP_Cuts_Gomory-Disjunctive:Disjunctive 7
Instance28
Gap
100.00%
100.00%
100.00%
69.66%
57.08%
55.36%
51.69%
50.22%
42.28%
35.46%
35.34%
CPXPARAM_MIP_Cuts_Gomory-Disjunctive:Gomory 3
CPXPARAM_MIP_Cuts_Gomory-Disjunctive:Disjunctive 7
Instance29
Gap
100.00%
100.00%
100.00%
100.00%
93.38%
71.80%
66.03%
62.38%
60.94%
60.16%
CPXPARAM_MIP_Cuts_Gomory-Disjunctive:Gomory 2
CPXPARAM_MIP_Cuts_Gomory-Disjunctive:Disjunctive 12
Instance30
Gap
100.00%
100.00%
69.10%
61.90%
52.71%
51.93%
46.42%
34.02%
26.54%
24.60%
24.59%
21.99%
21.50%
CPXPARAM_MIP_Cuts_Gomory-Disjunctive:Gomory 5
CPXPARAM_MIP_Cuts_Gomory-Disjunctive:Disjunctive 10
Instance31
Gap
100.00%
100.00%
99.75%
99.32%
91.61%
78.44%
70.57%
70.05%
68.68%
68.17%
64.86%
51.95%
39.61%
39.61%
14.81%
14.81%
14.81%
14.81%
CPXPARAM_MIP_Cuts_Gomory-Disjunctive:Gomory 5
CPXPARAM_MIP_Cuts_Gomory-Disjunctive:Disjunctive 1
Instance32
Gap
100.00%
100.00%
100.00%
69.77%
63.45%
56.85%
54.79%
51.83%
50.21%
43.72%
42.85%
40.33%
40.17%
30.77%
30.76%
CPXPARAM_MIP_Cuts_Gomory-Disjunctive:Gomory 5
CPXPARAM_MIP_Cuts_Gomory-Disjunctive:Disjunctive 8
Instance33
Gap
100.00%
100.00%
100.00%
98.79%
92.52%
86.49%
84.62%
69.20%
65.99%
64.34%
58.06%
43.16%
34.51%
20.50%
CPXPARAM_MIP_Cuts_Gomory-Disjunctive:Gomory 0
CPXPARAM_MIP_Cuts_Gomory-Disjunctive:Disjunctive 14
Instance34
Gap
100.00%
100.00%
66.38%
51.74%
38.34%
33.92%
29.88%
26.76%
CPXPARAM_MIP_Cuts_Gomory-Disjunctive:Gomory 2
CPXPARAM_MIP_Cuts_Gomory-Disjunctive:Disjunctive 2
Instance35
Gap
100.00%
100.00%
99.38%
98.77%
87.79%
63.79%
60.01%
45.41%
18.71%
CPXPARAM_MIP_Cuts_Gomory-Disjunctive:Gomory 1
CPXPARAM_MIP_Cuts_Gomory-Disjunctive:Disjunctive 10
Instance36
Gap
100.00%
100.00%
100.00%
85.27%
82.45%
71.08%
65.91%
65.65%
59.17%
52.08%
46.41%
45.69%
38.61%
38.45%
38.31%
CPXPARAM_MIP_Cuts_Gomory-Disjunctive:Gomory 5
CPXPARAM_MIP_Cuts_Gomory-Disjunctive:Disjunctive 4
Instance37
Gap
100.00%
100.00%
100.00%
100.00%
100.00%
95.89%
77.74%
77.41%
76.39%
74.16%
64.90%
59.43%
55.99%
52.30%
49.13%
CPXPARAM_MIP_Cuts_Gomory-Disjunctive:Gomory 4
CPXPARAM_MIP_Cuts_Gomory-Disjunctive:Disjunctive 11
Instance38
Gap
100.00%
100.00%
78.46%
58.43%
34.42%
28.27%
27.82%
27.69%
25.07%
23.97%
23.67%
23.63%
CPXPARAM_MIP_Cuts_Gomory-Disjunctive:Gomory 6
CPXPARAM_MIP_Cuts_Gomory-Disjunctive:Disjunctive 7
Instance39
Gap
100.00%
100.00%
99.77%
99.55%
93.77%
69.21%
65.06%
48.09%
CPXPARAM_MIP_Cuts_Gomory-Disjunctive:Gomory 2
CPXPARAM_MIP_Cuts_Gomory-Disjunctive:Disjunctive 6
